NAME : prob15c
TYPE : PDTSP
DIMENSION : 31
EDGE_WEIGHT_TYPE : EUC_2D
NODE_COORD_SECTION
1 910 491
2 922 696
3 593 424
4 450 132
5 820 270
6 209 213
7 712 933
8 675 630
9 906 460
10 830 898
11 422 617
12 765 543
13 915 302
14 762 171
15 567 802
16 741 946
17 625 38
18 206 456
19 911 211
20 550 274
21 990 194
22 511 922
23 892 817
24 320 784
25 147 695
26 22 694
27 898 602
28 94 877
29 243 942
30 776 293
31 834 461
PICKUP_AND_DELIVERY_SECTION
1 0 0 0 0 0 0
2 0 0 0 0 17 0
3 0 0 0 0 18 0
4 0 0 0 0 19 0
5 0 0 0 0 20 0
6 0 0 0 0 21 0
7 0 0 0 0 22 0
8 0 0 0 0 23 0
9 0 0 0 0 24 0
10 0 0 0 0 25 0
11 0 0 0 0 26 0
12 0 0 0 0 27 0
13 0 0 0 0 28 0
14 0 0 0 0 29 0
15 0 0 0 0 30 0
16 0 0 0 0 31 0
17 0 0 0 0 0 2
18 0 0 0 0 0 3
19 0 0 0 0 0 4
20 0 0 0 0 0 5
21 0 0 0 0 0 6
22 0 0 0 0 0 7
23 0 0 0 0 0 8
24 0 0 0 0 0 9
25 0 0 0 0 0 10
26 0 0 0 0 0 11
27 0 0 0 0 0 12
28 0 0 0 0 0 13
29 0 0 0 0 0 14
30 0 0 0 0 0 15
31 0 0 0 0 0 16
DEPOT_SECTION
1 
-1
EOF
